sat
(:max-memory         18.35
 :memory             18.15
 :nlsat-conflicts    2
 :nlsat-decisions    2
 :nlsat-propagations 20
 :nlsat-stages       7
 :num-allocs         86512
 :rlimit-count       23474
 :time               0.01
 :total-time         0.02)
